###################################Header for General commands#######################################################

atom_style	granular		#Simulation of particles

boundary	f f f			#fixed boundaries -> particles will be deleted if leaving the simulation box

units		si

communicate	single vel yes	#default

newton		off				#default



region       reg block -0.15 0.45 -0.15 0.15 -0.15 0.45 units box
region my_insert_plane block 0.3 0.4 -0.1 0.1 0.0 0.0 units box
create_box   1 reg
neighbor     0.002 bin
neigh_modify delay 0
#Material properties required for pair style
fix          m1 all property/global youngsModulus peratomtype 5.0e6
fix          m2 all property/global poissonsRatio peratomtype 0.325
fix          m3 all property/global coefficientRestitution peratomtypepair 1 0.89
fix          m4 all property/global coefficientFriction peratomtypepair 1 0.1
fix		m5 all property/global rc peratomtypepair 1 0.2
pair_style   gran model hertz tangential history
pair_coeff    * *
timestep     0.00001
fix          gravi all gravity 9.81 vector 0.0 0.0 -1.0
fix          xwalls1 all wall/gran model hertz tangential history primitive type 1 xplane -0.15
fix          xwalls2 all wall/gran model hertz tangential history primitive type 1 xplane 0.45
fix          ywalls1 all wall/gran model hertz tangential history primitive type 1 yplane -0.15
fix          ywalls2 all wall/gran model hertz tangential history primitive type 1 yplane 0.15
fix          zwalls1 all wall/gran model hertz tangential history primitive type 1 zplane -0.15
fix          zwalls2 all wall/gran model hertz tangential history primitive type 1 zplane 0.45

#region of insertion

#particle distributions
fix          pts1 all particletemplate/sphere 12345787 atom_type 1 density constant 3000 radius constant 0.05
fix          pdd1 all particledistribution/discrete 17903  1 pts1 1.0

fix 		ins all insert/stream seed 49979687 distributiontemplate pdd1 &
     	mass 2 massrate 0.5 overlapcheck yes all_in yes vel constant 0 0 -0.5 &
      	insertion_face my_insert_plane extrude_length 0.25

fix          cad all mesh/surface file slope.stl heal auto_remove_duplicates type 1 scale 0.001
fix          granwalls all wall/gran model hertz tangential history mesh n_meshes 1 meshes cad
#apply nve integration to all particles
fix          integr all nve/sphere
#output settings, include total thermal energy

dump            dmp all custom 1000 		post/dump*.vtk id type x y z ix iy iz vx vy vz fx fy fz omegax omegay omegaz radius
#insert particles and run
run             150000







