#INITALIZATION  # 初始化
atom_style      granular  # 设置原子类型为颗粒（granular）
#atom_modify     map array	#no se para que es  # 这是一个被注释掉的命令，用于修改原子的映射方式，注释为西班牙语“我不知道这是做什么的”

boundary	f f f			#fixed boundaries -> particles will be deleted if leaving the simulation box  # 设置边界条件为固定边界，离开模拟盒子的颗粒将被删除

units		si  # 设置单位制为国际单位制（SI units）

communicate	single vel yes	#default  # 设置通信方式为单速度通信（默认）

newton		off				#default  # 关闭牛顿第三定律（默认）

hard_particles yes  # 开启硬颗粒模式

###################################System variables##################################################################  # 系统变量定义

#Definition of boundaries  # 边界定义
variable xmin equal -0.2  # 定义 x 轴最小坐标
variable xmax equal 0.2  # 定义 x 轴最大坐标

variable ymin equal -0.2  # 定义 y 轴最小坐标
variable ymax equal 0.2  # 定义 y 轴最大坐标

variable zmin equal -0.2  # 定义 z 轴最小坐标
variable zmax equal 0.3  # 定义 z 轴最大坐标

#Definition of the timestep  # 时间步长定义

variable dt equal 1e-6		#timestep = 0.00001 second; Each iteration step represents 0.0001 seconds.  # 定义时间步长为 $1.0 \times 10^{-6}$ 秒；注释说明每个迭代步代表 0.0001 秒（可能存在笔误，与 dt 值不符）


###################################Specific variables for current simulation#########################################  # 当前模拟的特定变量定义

variable natoms equal 3 	#1 -> granular #2->intruder #3->container  # 定义原子类型数量为 3，分别代表普通颗粒、入侵者颗粒和容器

####variable for material properties####  # 材料属性变量

####Young Modulus####  # 杨氏模量
variable	youngmodulus1	equal 	7e9		#N/mm²  # 定义原子类型 1 的杨氏模量
variable	youngmodulus2	equal 	7e9		#N/mm²  # 定义原子类型 2 的杨氏模量
variable	youngmodulus3	equal 	7e9		#N/mm²  # 定义原子类型 3 的杨氏模量

####Poission ratio####  # 泊松比
variable 	poission1	equal	0.35  # 定义原子类型 1 的泊松比
variable 	poission2	equal	0.35  # 定义原子类型 2 的泊松比
variable 	poission3	equal	0.35  # 定义原子类型 3 的泊松比

####variable for contact properties####  # 接触属性变量

####coefficient of restitution####  # 恢复系数
variable	CoR11	equal	0.6  # 定义原子类型 1 和 1 之间的恢复系数
variable	CoR12	equal	0.6  # 定义原子类型 1 和 2 之间的恢复系数
variable	CoR13	equal	0.6	 # 定义原子类型 1 和 3 之间的恢复系数
variable	CoR21	equal	0.6  # 定义原子类型 2 和 1 之间的恢复系数
variable	CoR22	equal	0.6  # 定义原子类型 2 和 2 之间的恢复系数
variable	CoR23	equal	0.6  # 定义原子类型 2 和 3 之间的恢复系数
variable	CoR31	equal	0.6  # 定义原子类型 3 和 1 之间的恢复系数
variable	CoR32	equal	0.6  # 定义原子类型 3 和 2 之间的恢复系数
variable	CoR33	equal	0.6	 # 定义原子类型 3 和 3 之间的恢复系数

####sliding friction coefficient####  # 滑动摩擦系数
variable	sf11	equal	0.3  # 定义原子类型 1 和 1 之间的滑动摩擦系数
variable	sf12	equal	0.3  # 定义原子类型 1 和 2 之间的滑动摩擦系数
variable	sf13	equal	0.36  # 定义原子类型 1 和 3 之间的滑动摩擦系数
variable	sf21	equal	0.3  # 定义原子类型 2 和 1 之间的滑动摩擦系数
variable	sf22	equal	0.3  # 定义原子类型 2 和 2 之间的滑动摩擦系数
variable	sf23	equal	0.36  # 定义原子类型 2 和 3 之间的滑动摩擦系数
variable	sf31	equal	0.36  # 定义原子类型 3 和 1 之间的滑动摩擦系数
variable	sf32	equal	0.36  # 定义原子类型 3 和 2 之间的滑动摩擦系数
variable	sf33	equal	0.3  # 定义原子类型 3 和 3 之间的滑动摩擦系数

####rolling friction coefficient####  # 滚动摩擦系数
variable	rf11	equal	0.8  # 定义原子类型 1 和 1 之间的滚动摩擦系数
variable	rf12	equal	0.8  # 定义原子类型 1 和 2 之间的滚动摩擦系数
variable	rf13	equal	0.8  # 定义原子类型 1 和 3 之间的滚动摩擦系数
variable	rf21	equal	0.8  # 定义原子类型 2 和 1 之间的滚动摩擦系数
variable	rf22	equal	0.8  # 定义原子类型 2 和 2 之间的滚动摩擦系数
variable	rf23	equal	0.8  # 定义原子类型 2 和 3 之间的滚动摩擦系数
variable	rf31	equal	0.8  # 定义原子类型 3 和 1 之间的滚动摩擦系数
variable	rf32	equal	0.8  # 定义原子类型 3 和 2 之间的滚动摩擦系数
variable	rf33	equal	0.8  # 定义原子类型 3 和 3 之间的滚动摩擦系数


####variable for particle1####  # 颗粒类型 1 的变量

#Number of particle radius  # 颗粒半径的数量
variable	nradii1	equal	1  # 定义颗粒类型 1 只有一种半径尺寸

variable	radius11	equal	0.004825	#m  # 定义颗粒类型 1 的第一种半径尺寸（米）
variable	radius12	equal	0.0300	#m  # 定义颗粒类型 1 的第二种半径尺寸（米），可能未使用

variable	frac11	equal	1.0		#20%  # 定义颗粒类型 1 中半径为 radius11 的颗粒占比 100%
variable	frac12	equal	0.0		#80%  # 定义颗粒类型 1 中半径为 radius12 的颗粒占比 0%

variable	density1	equal	1260	#kg/m³  # 定义颗粒类型 1 的密度


####variable for particle2####  # 颗粒类型 2 的变量

#Number of particle radius  # 颗粒半径的数量
variable	nradii2	equal	1  # 定义颗粒类型 2 只有一种半径尺寸

variable	radius21	equal	0.0192	#m  # 定义颗粒类型 2 的第一种半径尺寸（米）
variable	radius22	equal	0.01	#m  # 定义颗粒类型 2 的第二种半径尺寸（米），可能未使用

variable	frac21	equal	1.0		#20%  # 定义颗粒类型 2 中半径为 radius21 的颗粒占比 100%
variable	frac22	equal	0.0		#80%  # 定义颗粒类型 2 中半径为 radius22 的颗粒占比 0%

variable	density2	equal	1260	#kg/m³  # 定义颗粒类型 2 的密度


####filling parameters####  # 填充参数

variable	filltime	equal	0.5		#seconds  # 定义颗粒填充的持续时间（秒）

variable	fillmass	equal	0.01	#kg  # 定义填充的总质量（千克）

variable	fillmassrate	equal	${fillmass}/${filltime}	#kg/s  # 定义颗粒填充的质量速率

variable	fillsteps	equal	${filltime}/${dt}		#Transform time to iteration steps  # 定义颗粒填充所需的模拟步数

####settle time####  # 沉降时间

variable	settletime	equal	0.5 #second  # 定义颗粒沉降的持续时间（秒）

variable	settlesteps	equal	${settletime}/${dt}		#Transform time to iteration steps  # 定义颗粒沉降所需的模拟步数


####shaking time#####  # 晃动时间

variable	shakingtime	equal	10 #seconds  # 定义容器晃动的持续时间（秒）

variable	shakingsteps	equal	${shakingtime}/${dt}	#Transform time to iteration steps  # 定义容器晃动所需的模拟步数


####settle time 2####  # 第二次沉降时间

variable	settletime2	equal	1 #second  # 定义第二次沉降的持续时间（秒）

variable	settlesteps2	equal	${settletime}/${dt}		#Transform time to iteration steps  # 定义第二次沉降所需的模拟步数（可能引用了错误的 settletime 变量）


###################################Definition of simulationbox#######################################################  # 模拟区域定义

region		reg block ${xmin} ${xmax} ${ymin} ${ymax} ${zmin} ${zmax} units box  # 定义一个长方体模拟区域

create_box	3 reg  # 创建模拟盒子，包含 3 种原子类型

neighbor	0.004 bin		#default  # 设置邻居列表的安全距离和构建算法（默认）

neigh_modify	delay 0		#default  # 修改邻居列表的更新行为（默认）

#################################Definition of the contact models####################################################  # 接触模型定义

pair_style gran model hertz tangential history	#contact model  # 定义颗粒间相互作用力模型为赫兹接触模型和切向历史模型

pair_coeff	* *				#default  # 设置接触模型的系数（默认）

timestep ${dt}  # 设置模拟时间步长

thermo  5000  # 每 5000 个时间步输出一次热力学信息

fix		integrator all nve/sphere			#default  # 定义积分器，用于对所有球形颗粒进行时间积分（默认）

fix		gravi all gravity 9.81 vector 0.0 0.0 -1.0		#gravity of 9.81 m/s² in negative z direction  # 施加重力，大小为 9.81 m/s²，方向为负 z 方向

###################################Definition of Material properties#################################################  # 材料属性定义

fix 		m1 all property/global youngsModulus peratomtype ${youngmodulus1} ${youngmodulus2} ${youngmodulus3}  # 设置所有颗粒的杨氏模量，根据原子类型指定

fix 		m2 all property/global poissonsRatio peratomtype ${poission1} ${poission2} ${poission3}  # 设置所有颗粒的泊松比，根据原子类型指定

fix 		m3 all property/global coefficientRestitution peratomtypepair ${natoms} 0.6 0.6 0.6 0.6 0.6 0.6 0.6 0.6 0.6  # 设置所有颗粒对的恢复系数

fix 		m4 all property/global coefficientFriction peratomtypepair ${natoms} ${sf11} ${sf12} ${sf13} ${sf21} ${sf22}  ${sf23} ${sf31} ${sf32}  ${sf33}  # 设置所有颗粒对的滑动摩擦系数

fix 		m5 all property/global coefficientRollingFriction peratomtypepair ${natoms} ${rf11} ${rf12} ${rf13} ${rf21} ${rf22} ${rf23} ${rf31} ${rf32} ${rf33}  # 设置所有颗粒对的滚动摩擦系数


###################################Generation and Loading of the Geometry .stl#######################################  # 几何体（.stl）的生成和加载

fix			container 	all mesh/surface file meshes/cylinder.stl	type 3  #load mesh from STL file. Type 3 for geometry.  # 指定加载的 STL 文件为 meshes/cylinder.stl，类型为几何体
#Scale down to transform mm to meters          # 注释说明可能需要缩放以将毫米转换为米

fix 		walls 	all wall/gran model hertz tangential history mesh n_meshes 1 meshes container  # 定义墙壁，使用赫兹接触模型和切向历史模型，并指定容器网格作为墙壁

###################################Generation and Insertion of the particles#########################################  # 颗粒的生成和插入

fix		pts1 all particletemplate/sphere 10487 atom_type 1 density constant ${density1} radius constant ${radius11}	 # 定义颗粒类型 1 的球形颗粒模板

fix		intr all particletemplate/sphere 11887 atom_type 2 density constant ${density2} radius constant ${radius21}	 # 定义入侵者颗粒（类型 2）的球形颗粒模板

fix 	pdd1 all particledistribution/discrete 32452867 ${nradii1} pts1 ${frac11}  # 定义颗粒类型 1 的离散颗粒分布
fix 	pdd2 all particledistribution/discrete 17903 ${nradii2} intr ${frac21}  # 定义颗粒类型 2 的离散颗粒分布

fix		ins_mesh all mesh/surface/planar file meshes/Insertionsface2.stl type 3  # 定义修正以加载用于颗粒插入的平面网格
#fix		ins_mesh_int all mesh/surface/planar file meshes/InsertionsfaceInt3.stl type 3  # 这是一个被注释掉的命令，用于加载另一个用于插入入侵者颗粒的平面网格

group           grains type 1  # 创建名为 grains 的原子组，包含所有原子类型为 1 的颗粒
group   grains2 type 1  # 创建名为 grains2 的原子组，包含所有原子类型为 1 的颗粒
group           intruder type 2  # 创建名为 intruder 的原子组，包含所有原子类型为 2 的颗粒

region reg_intr cylinder z 0 0 0.048 0.002 0.18 units box  # 定义一个名为 reg_intr 的圆柱形区域
region reg_part cylinder z 0 0 0.048 0.05 0.188 units box  # 定义一个名为 reg_part 的圆柱形区域，用于颗粒插入

fix             ins_intr intruder insert/pack seed 10000139 verbose yes distributiontemplate pdd2 insert_every once overlapcheck yes vel constant 0. 0. -0.6 region reg_part particles_in_region 1  # 定义修正以打包方式插入入侵者颗粒，指定插入区域、速度和数量

run             500000  # 运行模拟 500,000 个时间步
unfix ins_intr  # 取消入侵者颗粒的插入修正

###################################Dumping of the data for post-processing to visualize############################  # 数据输出（dumping）用于后处理和可视化

shell rm -r  # 执行 shell 命令删除目录
porcelain_1.92r_1A30f  # 要删除的目录名称
shell 	mkdir porcelain_1.92r_1A30f  # 执行 shell 命令创建目录

#Definition of the dumptime  # 数据输出时间定义

variable dumptime equal 0.01	# Every 0.01 s 1 image  # 定义数据输出时间间隔为 0.01 秒（每 0.01 秒输出一次）

variable dumpstep equal ${dumptime}/${dt}	#Transform to iteration steps  # 定义数据输出频率（以模拟步为单位）


dump	dmpparticle grains custom/vtk ${dumpstep} porcelain_1.92r_1A30f/particles_*.vtk id type x y z ix iy iz vx vy vz fx fy fz omegax omegay omegaz radius mass  # 输出普通颗粒的 VTK 数据

dump	dmpintruder intruder custom/vtk ${dumpstep} porcelain_1.92r_1A30f/intruder_*.vtk id type x y z ix iy iz vx vy vz fx fy fz omegax omegay omegaz radius mass  # 输出入侵者颗粒的 VTK 数据

dump	dmpcontainer all mesh/stl ${dumpstep} porcelain_1.92r_1A30f/container*.stl container  # 输出容器网格的 STL 数据

dump	dmpparticle2 grains2 custom/vtk ${dumpstep} porcelain_1.92r_1A30f/particles2_*.vtk id type x y z ix iy iz vx vy vz fx fy fz omegax omegay omegaz radius mass  # 输出 grains2 组中颗粒的 VTK 数据


fix 	ins_part grains insert/stream seed 86028157 verbose yes distributiontemplate pdd1  nparticles 500 particlerate 20e06 overlapcheck yes all_in no vel constant 0 0 -0.5 insertion_face ins_mesh extrude_length 0.02  # 定义修正以流式方式插入颗粒


run             500000  # 运行模拟 500,000 个时间步


####################################RUN the simulation filling###########################################################  # 运行模拟填充阶段

unfix	ins_part  # 取消颗粒插入修正

fix 	ins_part2 grains2 insert/stream seed 86028157 verbose yes distributiontemplate pdd1  nparticles 500 particlerate 20e06 overlapcheck yes all_in no vel constant 0 0 -0.5 insertion_face ins_mesh extrude_length 0.02  # 定义修正以流式方式插入 grains2 组中的颗粒


run 500000  # 运行模拟 500,000 个时间步

unfix	ins_part2  # 取消颗粒插入修正
unfix ins_mesh  # 取消与颗粒插入面相关的修正
##################################RUN the simulation settling#############################################################  # 运行模拟沉降阶段

#run	 ${settlesteps}  # 这是一个被注释掉的命令，用于运行沉降阶段模拟

#################################RUN the simulation shaking#############################################################  # 运行模拟晃动阶段
fix             shaking all move/mesh mesh container wiggle amplitude 0 0 0.01 period 0.033 #Gamma = 4  # 定义修正以使容器网格进行晃动
#fix zpos intruder print 10000 "$z" file porcelain_1.92r_1A30f/coord_intr.txt  # 这是一个被注释掉的命令，用于打印入侵者 z 坐标
dump	dmpintruder2 intruder custom/vtk ${dumpstep} porcelain_1.92r_1A30f/intruder_zpos.vtk z  # 输出入侵者颗粒的 z 坐标 VTK 数据
run	 ${shakingsteps}  # 运行模拟晃动阶段
unfix           shaking  # 取消容器晃动修正


#################################RUN the simulation settling 2 ###############################################################  # 运行模拟第二次沉降阶段

run	 ${settlesteps2}  # 运行模拟第二次沉降阶段